Academic license - for non-commercial use only
Gurobi Optimizer version 9.0.3 build v9.0.3rc0 (mac64)
Optimize a model with 17696 rows, 16320 columns and 92780 nonzeros
Model fingerprint: 0x9cafaeb9
Variable types: 0 continuous, 16320 integer (16320 binary)
Coefficient statistics:
  Matrix range     [1e+00, 1e+00]
  Objective range  [1e+01, 1e+04]
  Bounds range     [1e+00, 1e+00]
  RHS range        [1e+00, 1e+02]
Presolve removed 20 rows and 20 columns
Presolve time: 0.14s
Presolved: 17676 rows, 16300 columns, 92740 nonzeros
Variable types: 0 continuous, 16300 integer (16300 binary)
Found heuristic solution: objective 92604.000000

Concurrent LP optimizer: dual simplex and barrier
Showing barrier log only...

Root barrier log...

Ordering time: 0.03s

Barrier statistics:
 Dense cols : 160
 AA' NZ     : 8.094e+04
 Factor NZ  : 3.691e+05 (roughly 17 MBytes of memory)
 Factor Ops : 1.799e+07 (less than 1 second per iteration)
 Threads    : 3

                  Objective                Residual
Iter       Primal          Dual         Primal    Dual     Compl     Time
   0   3.95900764e+06 -5.95844133e+04  3.25e+01 0.00e+00  4.44e+02     0s
   1   1.48196579e+05 -1.06315728e+06  4.32e-01 1.40e+03  2.79e+01     0s
   2   1.05938141e+05 -1.98553845e+05  5.52e-02 2.77e+02  6.18e+00     0s
   3   1.00066598e+05  3.21567089e+04  2.71e-02 1.02e+02  1.31e+00     0s
   4   8.68091182e+04  7.02299120e+04  8.34e-04 1.85e+01  3.26e-01     0s
   5   8.29135948e+04  7.44918380e+04  3.44e-04 9.22e+00  1.66e-01     0s
   6   8.12064967e+04  7.64323278e+04  1.80e-04 5.26e+00  9.40e-02     0s
   7   8.05840851e+04  7.73567178e+04  1.28e-04 3.31e+00  6.36e-02     0s
   8   8.00874323e+04  7.78483323e+04  8.90e-05 2.18e+00  4.41e-02     0s
   9   7.98541358e+04  7.80090419e+04  7.14e-05 1.83e+00  3.64e-02     0s
  10   7.96041919e+04  7.82188359e+04  5.30e-05 1.38e+00  2.73e-02     1s
  11   7.94533157e+04  7.84747108e+04  4.27e-05 8.43e-01  1.93e-02     1s
  12   7.93385268e+04  7.85617977e+04  3.48e-05 6.31e-01  1.53e-02     1s
  13   7.91976120e+04  7.86029906e+04  2.53e-05 5.29e-01  1.17e-02     1s
  14   7.90850175e+04  7.86357844e+04  1.76e-05 4.49e-01  8.86e-03     1s
  15   7.90292913e+04  7.86627248e+04  1.38e-05 3.84e-01  7.22e-03     1s
  16   7.90005311e+04  7.87157273e+04  1.18e-05 2.68e-01  5.62e-03     1s
  17   7.89752795e+04  7.87258087e+04  1.01e-05 2.42e-01  4.92e-03     1s
  18   7.89280367e+04  7.87498677e+04  6.91e-06 1.81e-01  3.51e-03     1s
  19   7.89008585e+04  7.87602504e+04  5.11e-06 1.54e-01  2.77e-03     1s
  20   7.88788100e+04  7.87730314e+04  3.64e-06 1.21e-01  2.08e-03     1s
  21   7.88674317e+04  7.87923392e+04  2.92e-06 7.14e-02  1.48e-03     1s
  22   7.88645641e+04  7.87999682e+04  2.74e-06 5.24e-02  1.28e-03     1s
  23   7.88566850e+04  7.88107129e+04  2.25e-06 2.39e-02  9.10e-04     1s
  24   7.88380543e+04  7.88135913e+04  1.07e-06 1.69e-02  4.83e-04     1s
  25   7.88296937e+04  7.88178905e+04  5.57e-07 5.59e-03  2.34e-04     1s
  26   7.88238605e+04  7.88185640e+04  2.10e-07 3.97e-03  1.05e-04     1s
  27   7.88209256e+04  7.88200340e+04  3.52e-08 3.47e-04  1.77e-05     1s
  28   7.88202483e+04  7.88202446e+04  1.15e-10 7.89e-06  7.40e-08     1s
  29   7.88202459e+04  7.88202459e+04  1.23e-11 3.86e-09  7.34e-12     1s

Barrier solved model in 29 iterations and 0.77 seconds
Optimal objective 7.88202459e+04


Solved with barrier

Root relaxation: objective 7.882025e+04, 1514 iterations, 0.61 seconds

    Nodes    |    Current Node    |     Objective Bounds      |     Work
 Expl Unexpl |  Obj  Depth IntInf | Incumbent    BestBd   Gap | It/Node Time

     0     0 78820.2459    0 1678 92604.0000 78820.2459  14.9%     -    1s
H    0     0                    82162.000000 78820.2459  4.07%     -    1s
H    0     0                    79505.000000 78820.2459  0.86%     -    1s
H    0     0                    79466.000000 78820.2459  0.81%     -    1s
     0     0 78829.1634    0 1723 79466.0000 78829.1634  0.80%     -    3s
     0     0 78831.9160    0 1721 79466.0000 78831.9160  0.80%     -    3s
     0     0 78831.9160    0 1698 79466.0000 78831.9160  0.80%     -    3s
     0     0 78831.9160    0 1697 79466.0000 78831.9160  0.80%     -    3s
     0     0 78831.9160    0 1696 79466.0000 78831.9160  0.80%     -    3s
     0     0 78844.2507    0 1738 79466.0000 78844.2507  0.78%     -    4s
     0     0 78847.0065    0 1740 79466.0000 78847.0065  0.78%     -    4s
     0     0 78847.1437    0 1744 79466.0000 78847.1437  0.78%     -    4s
     0     0 78847.1674    0 1736 79466.0000 78847.1674  0.78%     -    4s
     0     0 78847.2424    0 1722 79466.0000 78847.2424  0.78%     -    4s
     0     0 78991.4198    0 1688 79466.0000 78991.4198  0.60%     -    5s
     0     0 78991.5557    0 1754 79466.0000 78991.5557  0.60%     -    6s
     0     0 78991.5557    0 1750 79466.0000 78991.5557  0.60%     -    6s
     0     0 78991.5557    0 1756 79466.0000 78991.5557  0.60%     -    6s
     0     0 78991.5557    0 1757 79466.0000 78991.5557  0.60%     -    6s
H    0     0                    79268.000000 79006.6562  0.33%     -    7s
     0     0 79007.0000    0 1830 79268.0000 79007.0000  0.33%     -    8s
     0     0 79026.3448    0 1833 79268.0000 79026.3448  0.30%     -    8s
     0     0 79026.3448    0 1836 79268.0000 79026.3448  0.30%     -    8s
     0     0 79026.3448    0 1838 79268.0000 79026.3448  0.30%     -    8s
     0     0 79026.3448    0 1838 79268.0000 79026.3448  0.30%     -    8s
     0     0 79028.3204    0 1841 79268.0000 79028.3204  0.30%     -    9s
     0     0 79028.3204    0 1827 79268.0000 79028.3204  0.30%     -   10s
     0     2 79028.3204    0 1827 79268.0000 79028.3204  0.30%     -   11s
    15     6 79100.0312    5 1692 79268.0000 79085.0353  0.23%  1195   15s
   511   275 79262.8000   41 1182 79268.0000 79176.0000  0.12%  94.2   20s
  1305   568     cutoff   62      79268.0000 79211.8611  0.07%  60.1   25s
  2169   818 79244.0000   41 1827 79268.0000 79227.5714  0.05%  50.4   33s
  2172   820 79234.0000   30 1721 79268.0000 79227.5714  0.05%  50.3   36s
  2178   827 79227.5714   15 1764 79268.0000 79227.5714  0.05%  52.0   41s
  2184   831 79227.5714   17 1680 79268.0000 79227.5714  0.05%  57.6   45s
  2239   809     cutoff   21      79268.0000 79227.5714  0.05%  68.2   50s

Cutting planes:
  Gomory: 4
  Zero half: 90

Explored 2252 nodes (160637 simplex iterations) in 50.50 seconds
Thread count was 8 (of 8 available processors)

Solution count 5: 79268 79466 79505 ... 92604

Optimal solution found (tolerance 1.00e-04)
Best objective 7.926800000000e+04, best bound 7.926800000000e+04, gap 0.0000%

User-callback calls 15567, time in user-callback 0.09 sec
Solution written to /Users/mdeboute/Desktop/Etudes/Master/M2/S9/GOPP/Projet/multi-period-flp/solution/instSingle_I20_J100_T8_1_result.txt
